c FILE /home/rafael/Documents/HappySet/MIHS/inputs/happygen/output/graph_d_regular_k5_p0.2_v50_20241127_082627.txt
c SOURCE This is a d-regular graph formed for the happy graph colouring problem.
c DESCRIPTION It was generated using the problem generator of Rhyd Lewis
c
c GRAPH STATS
c Seed                             = 2074753097
c Number of Nodes                  = 50
c Number of colours k              = 5
c Number of pre-assignments        = 10
c Degree of all vertices           = 6
c Density                          = 0.122449
c 
c The degrees of nodes 1 to 50, respectively, are as follows 
c [6, 6, 6, 6, 6, 6, 6, 6, 6, 6, 6, 6, 6, 6, 6, 6, 6, 6, 6, 6, 6, 6, 6, 6, 6, 6, 
c  6, 6, 6, 6, 6, 6, 6, 6, 6, 6, 6, 6, 6, 6, 6, 6, 6, 6, 6, 6, 6, 6, 6, 6] 
c  
p edge 50 150 5
e 1 7
e 1 19
e 1 21
e 1 23
e 1 24
e 1 47
e 2 8
e 2 20
e 2 31
e 2 34
e 2 42
e 2 44
e 3 17
e 3 19
e 3 27
e 3 30
e 3 39
e 3 43
e 4 11
e 4 14
e 4 20
e 4 30
e 4 36
e 4 42
e 5 13
e 5 17
e 5 18
e 5 19
e 5 36
e 5 44
e 6 9
e 6 12
e 6 17
e 6 29
e 6 33
e 6 37
e 7 14
e 7 16
e 7 21
e 7 36
e 7 44
e 8 15
e 8 20
e 8 34
e 8 37
e 8 38
e 9 10
e 9 16
e 9 21
e 9 23
e 9 29
e 10 24
e 10 30
e 10 37
e 10 38
e 10 46
e 11 12
e 11 22
e 11 34
e 11 40
e 11 41
e 12 23
e 12 25
e 12 28
e 12 47
e 13 15
e 13 20
e 13 31
e 13 35
e 13 46
e 14 17
e 14 22
e 14 28
e 14 50
e 15 22
e 15 27
e 15 35
e 15 39
e 16 19
e 16 25
e 16 26
e 16 41
e 17 18
e 17 24
e 18 27
e 18 32
e 18 47
e 18 50
e 19 20
e 19 46
e 20 45
e 21 36
e 21 43
e 21 46
e 22 31
e 22 32
e 22 39
e 23 42
e 23 48
e 23 49
e 24 33
e 24 37
e 24 40
e 25 26
e 25 38
e 25 41
e 25 48
e 26 27
e 26 29
e 26 46
e 26 50
e 27 38
e 27 49
e 28 29
e 28 32
e 28 34
e 28 45
e 29 39
e 29 42
e 30 34
e 30 42
e 30 44
e 31 32
e 31 43
e 31 45
e 32 38
e 32 39
e 33 40
e 33 43
e 33 48
e 33 49
e 34 41
e 35 36
e 35 39
e 35 41
e 35 45
e 36 40
e 37 49
e 37 50
e 38 42
e 40 44
e 40 47
e 41 50
e 43 48
e 43 49
e 44 45
e 45 48
e 46 49
e 47 48
e 47 50
n 14 4
n 20 1
n 21 2
n 23 1
n 26 3
n 28 4
n 30 5
n 31 4
n 37 1
n 38 5
